ALGO = Fast
EDIFF = 1e-05
EDIFFG = -0.02
ENCUT = 520.0
IBRION = 2
ISIF = 3
ISMEAR = 0
ISPIN = 2
LASPH = True
LCHARG = False
# LDAU = True
# LDAUJ = 0 0 0 0 0 0
# LDAUL = 0 0 2 2 2 0
# LDAUPRINT = 1
# LDAUTYPE = 2
# LDAUU = 0 0 5.3 3.32 6.2 0
LMAXMIX = 4
LORBIT = 11
LREAL = Auto
LWAVE = False
NELM = 100
NSW = 99
PREC = Accurate
SIGMA = 0.05
MAGMOM = 18*0.6 2*0.6 2*-5.0 2*-5.0 2*0.6 2*0.6 2*-0.6 2*0.6 2*-0.6 2*0.6 34*0.6