Li Co Fe Ni Al Co O 
 1.0000000000000000
     8.4337999999999997    0.0000000000000000    0.0000000000000000
    -2.8112499999999985    4.8692278327780070    0.0000000000000000
     0.0000000000000000    0.0000000000000000   23.9095000000000013
 Li  Co  Fe  Ni  Al  Co  O  
  18   2   2   2   2  10  34
Cartesian
  0.0000000000000000  0.0000000000000000 13.9094564300000005
  0.0000000000000000  0.0000000000000000  0.0000000000000000
  2.8112569800000005  0.0000000000000000 13.9094564300000005
  5.6225139600000000  0.0000000000000000  0.0000000000000000
  4.2168854699999994  2.4346199610000001 13.9094564300000005
  1.4056284900000005  2.4346199610000001  0.0000000000000000
 -1.4056285040000003  4.0576999440000003  9.2729710000000001
  7.0281424640000010  0.8115399790000002  4.6364854300000005
 -0.0000000139999996  1.6230799819999997  9.2729710000000001
  5.6225139740000003  3.2461599400000001  4.6364854300000005
  5.6225139460000007  1.6230799819999997  9.2729710000000001
  0.0000000139999999  3.2461599400000001  4.6364854300000005
  4.2168854560000000  4.0576999440000003  9.2729710000000001
  1.4056285040000001  0.8115399790000002  4.6364854300000005
  1.4056284760000002  4.0576999440000003  9.2729710000000001
  4.2168854839999996  0.8115399790000002  4.6364854300000005
  2.8112569660000002  1.6230799819999997  9.2729710000000001
  2.8112569939999998  3.2461599400000001  4.6364854300000005
  0.0000000139999999  3.2461599400000001 11.5912136449999998
  5.6225139460000007  1.6230799819999997  2.3182427849999998
  1.4056285040000001  0.8115399790000002 11.5912136449999998
  4.2168854560000000  4.0576999440000003  2.3182427849999998
  2.8112569939999998  3.2461599400000001 11.5912136449999998
  2.8112569660000002  1.6230799819999997  2.3182427849999998
  4.2168854839999996  0.8115399790000002 11.5912136449999998
  1.4056285040000003  4.0576999440000003  2.3182427849999998
  5.6225139740000003  3.2461599400000001 11.5912136449999998
 -0.0000000139999996  1.6230799819999997  2.3182427849999998
  7.0281424640000010  0.8115399790000002 11.5912136449999998
 -1.4056284760000002  4.0576999440000003  2.3182427849999998
  0.0000000000000000  0.0000000000000000  6.9547282150000003
  4.2168854699999994  2.4346199610000001  6.9547282150000003
 -1.4056284900000002  2.4346199610000001  6.9547282150000003
  5.6225139600000000  0.0000000000000000  6.9547282150000003
  2.8112569800000005  0.0000000000000000  6.9547282150000003
  1.4056284900000005  2.4346199610000001  6.9547282150000003
 -1.4056285040000003  4.0576999440000003 12.6113351270000003
  7.0281424640000010  0.8115399790000002  1.2981213029999998
 -0.0000000139999996  1.6230799819999997 12.6113351270000003
  5.6225139740000003  3.2461599400000001  1.2981213029999998
  1.4056284760000002  4.0576999440000003 12.6113351270000003
  4.2168854839999996  0.8115399790000002  1.2981213029999998
  5.6225139460000007  1.6230799819999997 12.6113351270000003
  0.0000000139999999  3.2461599400000001  1.2981213029999998
  4.2168854560000000  4.0576999440000003 12.6113351270000003
  1.4056285040000001  0.8115399790000002  1.2981213029999998
 -1.4056284900000002  2.4346199610000001 10.5710923019999985
  5.6225139600000000  0.0000000000000000  3.3383641280000003
  0.0000000000000000  0.0000000000000000 10.5710923019999985
  4.2168854699999994  2.4346199610000001  3.3383641280000003
  2.8112569800000005  0.0000000000000000 10.5710923019999985
  1.4056284900000005  2.4346199610000001  3.3383641280000003
  1.4056284900000005  2.4346199610000001 10.5710923019999985
  2.8112569800000005  0.0000000000000000  3.3383641280000003
  4.2168854699999994  2.4346199610000001 10.5710923019999985
  0.0000000000000000  0.0000000000000000  3.3383641280000003
  5.6225139600000000  0.0000000000000000 10.5710923019999985
 -1.4056284900000002  2.4346199610000001  3.3383641280000003
  0.0000000139999999  3.2461599400000001  7.9748495579999981
  5.6225139460000007  1.6230799819999997  5.9346068719999989
  1.4056285040000001  0.8115399790000002  7.9748495579999981
  4.2168854560000000  4.0576999440000003  5.9346068719999989
  2.8112569939999998  3.2461599400000001  7.9748495579999981
  2.8112569660000002  1.6230799819999997  5.9346068719999989
  4.2168854839999996  0.8115399790000002  7.9748495579999981
  1.4056284760000002  4.0576999440000003  5.9346068719999989
  5.6225139740000003  3.2461599400000001  7.9748495579999981
 -0.0000000139999996  1.6230799819999997  5.9346068719999989
  7.0281424640000010  0.8115399790000002  7.9748495579999981
 -1.4056285040000003  4.0576999440000003  5.9346068719999989
