Li18 Al2 Fe2 Co12 Ni2 O36
1.0
   8.4337999999999997    0.0000000000000000    0.0000000000000000
  -2.8112499999999985    4.8692278327780070    0.0000000000000000
   0.0000000000000000    0.0000000000000000   23.9095000000000013
Li Co Fe Ni Al Co O
18 2 2 2 2 10 36
direct
   0.0000000000000000    0.0000000000000000    0.5817543834040863 Li
   0.0000000000000000    0.0000000000000000    0.0000000000000000 Li
   0.3333321847802889    0.0000000000000000    0.5817543834040863 Li
   0.6666643695605777    0.0000000000000000    0.0000000000000000 Li
   0.6666643695437152    0.5000012413900529    0.5817543834040863 Li
   0.3333321847634264    0.5000012413900529    0.0000000000000000 Li
   0.1111107271881154    0.8333354041650971    0.3878362575545285 Li
   0.8888858271874830    0.1666670788203800    0.1939181258495577 Li
   0.1111107271365212    0.3333341625696728    0.3878362575545285 Li
   0.8888858271706205    0.6666683202104328    0.1939181258495577 Li
   0.7777750966970989    0.3333341625696728    0.3878362575545285 Li
   0.2222214576100427    0.6666683202104328    0.1939181258495577 Li
   0.7777750967486932    0.8333354041650971    0.3878362575545285 Li
   0.2222214576269052    0.1666670788203800    0.1939181258495577 Li
   0.4444429119684043    0.8333354041650971    0.3878362575545285 Li
   0.5555536424071940    0.1666670788203800    0.1939181258495577 Li
   0.4444429119168100    0.3333341625696728    0.3878362575545285 Li
   0.5555536423903316    0.6666683202104328    0.1939181258495577 Li
   0.2222214576100427    0.6666683202104328    0.4847953175516008 Co
   0.7777750966970989    0.3333341625696728    0.0969590658524854 Co
   0.2222214576269052    0.1666670788203800    0.4847953175516008 Fe
   0.7777750967486932    0.8333354041650971    0.0969590658524854 Fe
   0.5555536423903316    0.6666683202104328    0.4847953175516008 Ni
   0.4444429119168100    0.3333341625696728    0.0969590658524854 Ni
   0.5555536424071940    0.1666670788203800    0.4847953175516008 Al
   0.4444429152883787    0.8333354041650971    0.0969590658524854 Al
   0.8888858271706205    0.6666683202104328    0.4847953175516008 Co
   0.1111107271365212    0.3333341625696728    0.0969590658524854 Co
   0.8888858271874830    0.1666670788203800    0.4847953175516008 Co
   0.1111107305080898    0.8333354041650971    0.0969590658524854 Co
   0.0000000000000000    0.0000000000000000    0.2908771917020431 Co
   0.6666643695437152    0.5000012413900529    0.2908771917020431 Co
  -0.0000000000168625    0.5000012413900529    0.2908771917020431 Co
   0.6666643695605777    0.0000000000000000    0.2908771917020431 Co
   0.3333321847802889    0.0000000000000000    0.2908771917020431 Co
   0.3333321847634264    0.5000012413900529    0.2908771917020431 Co
   0.1111107271881154    0.8333354041650971    0.5274612654802484 O
   0.8888858271874830    0.1666670788203800    0.0542931179238378 O
   0.1111107271365212    0.3333341625696728    0.5274612654802484 O
   0.8888858271706205    0.6666683202104328    0.0542931179238378 O
   0.4444429119684043    0.8333354041650971    0.5274612654802484 O
   0.5555536424071940    0.1666670788203800    0.0542931179238378 O
   0.4444429119168100    0.3333341625696728    0.5274612654802484 O
   0.5555536423903316    0.6666683202104328    0.0542931179238378 O
   0.7777750966970989    0.3333341625696728    0.5274612654802484 O
   0.2222214576100427    0.6666683202104328    0.0542931179238378 O
   0.7777750967486932    0.8333354041650971    0.5274612654802484 O
   0.2222214576269052    0.1666670788203800    0.0542931179238378 O
  -0.0000000000168625    0.5000012413900529    0.4421293754365419 O
   0.6666643695605777    0.0000000000000000    0.1396250079675443 O
   0.0000000000000000    0.0000000000000000    0.4421293754365419 O
   0.6666643695437152    0.5000012413900529    0.1396250079675443 O
   0.3333321847802889    0.0000000000000000    0.4421293754365419 O
   0.3333321847634264    0.5000012413900529    0.1396250079675443 O
   0.3333321847634264    0.5000012413900529    0.4421293754365419 O
   0.3333321847802889    0.0000000000000000    0.1396250079675443 O
   0.6666643695437152    0.5000012413900529    0.4421293754365419 O
   0.0000000000000000    0.0000000000000000    0.1396250079675443 O
   0.6666643695605777    0.0000000000000000    0.4421293754365419 O
  -0.0000000000168625    0.5000012413900529    0.1396250079675443 O
   0.2222214576100427    0.6666683202104328    0.3335431338171019 O
   0.7777750966970989    0.3333341625696728    0.2482112495869842 O
   0.2222214576269052    0.1666670788203800    0.3335431338171019 O
   0.7777750967486932    0.8333354041650971    0.2482112495869842 O
   0.5555536423903316    0.6666683202104328    0.3335431338171019 O
   0.4444429119168100    0.3333341625696728    0.2482112495869842 O
   0.5555536424071940    0.1666670788203800    0.3335431338171019 O
   0.4444429119684043    0.8333354041650971    0.2482112495869842 O
   0.8888858271706205    0.6666683202104328    0.3335431338171019 O
   0.1111107271365212    0.3333341625696728    0.2482112495869842 O
   0.8888858271874830    0.1666670788203800    0.3335431338171019 O
   0.1111107271881154    0.8333354041650971    0.2482112495869842 O
